# Solution for model GasLib-40
# Objective value = 4.4754539745283047e+01
loadshed[innode_1] 0
loadshed[innode_2] 0
loadshed[innode_3] 0
loadshed[innode_4] 0
loadshed[innode_5] 0
loadshed[innode_6] 0
loadshed[innode_7] 0
loadshed[innode_8] 0
loadshed[source_1] -1.4401203246436189e-01
loadshed[source_2] 0.198577349905934
loadshed[source_3] 2.2852950897263358e-01
loadshed[sink_1] 0
loadshed[sink_2] 0
loadshed[sink_3] 0
loadshed[sink_4] 0
loadshed[sink_5] 0
loadshed[sink_6] 0
loadshed[sink_7] 0
loadshed[sink_8] 0
loadshed[sink_9] 0
loadshed[sink_10] 0
loadshed[sink_11] 0
loadshed[sink_12] 1
loadshed[sink_13] 0
loadshed[sink_14] 0
loadshed[sink_15] 0
loadshed[sink_16] 0
loadshed[sink_17] 0
loadshed[sink_18] 0
loadshed[sink_19] 0
loadshed[sink_20] 0
loadshed[sink_21] 1
loadshed[sink_22] 0
loadshed[sink_23] 0
loadshed[sink_24] 7.3658332200456833e-01
loadshed[sink_25] 0
loadshed[sink_26] 0
loadshed[sink_27] 0
loadshed[sink_28] 0
loadshed[sink_29] 0
flow[source_1,sink_3] 1.8085717999341108e+02
flow[innode_1,sink_16] 1.6354166666666970e+01
flow[innode_6,sink_13] -7.4828175572076532e+00
flow[sink_13,sink_14] -2.3836984223874321e+01
flow[sink_14,sink_10] -4.0191150890540989e+01
flow[sink_25,sink_26] 1.2621444299366249e+02
flow[sink_26,sink_9] 1.6354166666669244e+01
flow[sink_9,sink_18] 0
flow[sink_26,sink_4] 9.3506109660327013e+01
flow[sink_4,sink_20] -4.1635183927725052e+01
flow[sink_18,sink_6] -1.6354166666667879e+01
flow[sink_25,innode_8] -1.4814884666007472e+02
flow[sink_6,sink_7] -6.5416666666666671e+01
flow[sink_6,sink_22] 3.2708333333333641e+01
flow[sink_7,sink_24] 4.3079602547169564e+00
flow[sink_22,sink_1] 1.6354166666666970e+01
flow[sink_24,sink_21] 0
flow[sink_21,sink_12] 0
flow[sink_7,sink_5] -8.6078793588051809e+01
flow[sink_5,sink_17] -1.0243296025471848e+02
flow[sink_17,sink_4] -1.1878712692138515e+02
flow[sink_17,sink_8] 0
flow[sink_3,sink_23] 16.3541666666697
flow[sink_8,sink_20] -1.6354166666668334e+01
flow[sink_25,sink_20] 7.4343517261060072e+01
flow[sink_25,sink_15] -61.2804627041058
flow[sink_15,sink_29] 0
flow[sink_29,sink_28] 1.6354166666667879e+01
flow[sink_29,sink_2] 9.3988796037439144e+01
flow[sink_2,sink_15] 7.7634629370772473e+01
flow[sink_29,innode_7] -1.2669712937077369e+02
flow[innode_4,sink_19] 47.3924321545111
flow[sink_19,innode_3] 4.3555404895128561e+01
flow[innode_4,innode_5] 7.4569552069363880e+01
flow[sink_27,innode_5] -7.4569552069363880e+01
flow[sink_27,sink_19] 5.8215385402697208e+01
flow[sink_10,sink_11] 3.2708333333333641e+01
flow[sink_10,innode_2] -4.5698245995412734e+01
flow[sink_10,innode_3] -4.3555404895128561e+01
flow[innode_6,sink_25] 7.4828175572076532e+00
flow[sink_11,innode_1] 1.6354166666666970e+01
flow[sink_19,innode_2] 4.5698245995412734e+01
flow[source_3,innode_4] 1.2196198422387498e+02
flow[source_2,innode_7] 1.2669712937077369e+02
flow[sink_3,innode_8] 1.4814884666007472e+02
pressure[innode_1] 7.6526219468416841e+01
pressure[innode_2] 7.9093261816815371e+01
pressure[innode_3] 7.8996813304789669e+01
pressure[innode_4] 81.01325
pressure[innode_5] 8.0961957130022029e+01
pressure[innode_6] 7.4693025936712914e+01
pressure[innode_7] 81.01325
pressure[innode_8] 8.0408713537229019e+01
pressure[source_1] 81.01325
pressure[source_2] 81.01325
pressure[source_3] 81.01325
pressure[sink_1] 2.9464509866080748e+00
pressure[sink_2] 7.5243755848347575e+01
pressure[sink_3] 8.0408713537229019e+01
pressure[sink_4] 5.3915208051471879e+01
pressure[sink_5] 4.1745040616706234e+01
pressure[sink_6] 5.0475285969954484e+00
pressure[sink_7] 5.9455435005956385e+00
pressure[sink_8] 5.5830103313860967e+01
pressure[sink_9] 6.4824977754358741e+01
pressure[sink_10] 7.6677920776020386e+01
pressure[sink_11] 7.6526219468416841e+01
pressure[sink_12] 1.01325
pressure[sink_13] 7.4734277459410819e+01
pressure[sink_14] 7.4776935773141531e+01
pressure[sink_15] 7.4990295893848710e+01
pressure[sink_16] 7.5504569633599161e+01
pressure[sink_17] 4.9375555748979934e+01
pressure[sink_18] 4.6108236542422087e+00
pressure[sink_19] 7.9093261816815371e+01
pressure[sink_20] 5.6969758737449254e+01
pressure[sink_21] 1.01325
pressure[sink_22] 4.0102201289630850e+00
pressure[sink_23] 8.0243995525569233e+01
pressure[sink_24] 1.01325
pressure[sink_25] 7.4693025936712914e+01
pressure[sink_26] 6.5803816838301159e+01
pressure[sink_27] 8.0343167637562829e+01
pressure[sink_28] 7.7329315851148692e+01
pressure[sink_29] 7.7624598124765868e+01
interdiction[source_1,sink_3] 0
interdiction[innode_1,sink_16] 0
interdiction[innode_6,sink_13] 0
interdiction[sink_13,sink_14] 0
interdiction[sink_14,sink_10] 0
interdiction[sink_25,sink_26] 0
interdiction[sink_26,sink_9] 0
interdiction[sink_9,sink_18] 1
interdiction[sink_26,sink_4] 0
interdiction[sink_4,sink_20] 0
interdiction[sink_18,sink_6] 0
interdiction[sink_25,innode_8] 0
interdiction[sink_6,sink_7] 0
interdiction[sink_6,sink_22] 0
interdiction[sink_7,sink_24] 0
interdiction[sink_22,sink_1] 0
interdiction[sink_24,sink_21] 0
interdiction[sink_21,sink_12] 0
interdiction[sink_7,sink_5] 0
interdiction[sink_5,sink_17] 0
interdiction[sink_17,sink_4] 0
interdiction[sink_17,sink_8] 1
interdiction[sink_3,sink_23] 0
interdiction[sink_8,sink_20] 0
interdiction[sink_25,sink_20] 0
interdiction[sink_25,sink_15] 0
interdiction[sink_15,sink_29] 1
interdiction[sink_29,sink_28] 0
interdiction[sink_29,sink_2] 0
interdiction[sink_2,sink_15] 0
interdiction[sink_29,innode_7] 0
interdiction[innode_4,sink_19] 0
interdiction[sink_19,innode_3] 0
interdiction[innode_4,innode_5] 0
interdiction[sink_27,innode_5] 0
interdiction[sink_27,sink_19] 0
interdiction[sink_10,sink_11] 0
interdiction[sink_10,innode_2] 0
interdiction[sink_10,innode_3] 0
interdiction[innode_6,sink_25] 0
interdiction[sink_11,innode_1] 0
interdiction[sink_19,innode_2] 0
interdiction[source_3,innode_4] 0
interdiction[source_2,innode_7] 0
interdiction[sink_3,innode_8] 0
WCcheckFlow[source_1,sink_3] 39
WCcheckFlow[innode_1,sink_16] 1
WCcheckFlow[innode_6,sink_13] 13
WCcheckFlow[sink_13,sink_14] 12
WCcheckFlow[sink_14,sink_10] 11
WCcheckFlow[sink_25,sink_26] 15
WCcheckFlow[sink_26,sink_9] 1
WCcheckFlow[sink_9,sink_18] 0
WCcheckFlow[sink_26,sink_4] 13
WCcheckFlow[sink_4,sink_20] 2
WCcheckFlow[sink_18,sink_6] -1
WCcheckFlow[sink_25,innode_8] -36
WCcheckFlow[sink_6,sink_7] -4
WCcheckFlow[sink_6,sink_22] 2
WCcheckFlow[sink_7,sink_24] 3
WCcheckFlow[sink_22,sink_1] 1
WCcheckFlow[sink_24,sink_21] 2
WCcheckFlow[sink_21,sink_12] 1
WCcheckFlow[sink_7,sink_5] -8
WCcheckFlow[sink_5,sink_17] -9
WCcheckFlow[sink_17,sink_4] -10
WCcheckFlow[sink_17,sink_8] 0
WCcheckFlow[sink_3,sink_23] 1
WCcheckFlow[sink_8,sink_20] -1
WCcheckFlow[sink_25,sink_20] 0
WCcheckFlow[sink_25,sink_15] 6
WCcheckFlow[sink_15,sink_29] 0
WCcheckFlow[sink_29,sink_28] 1
WCcheckFlow[sink_29,sink_2] -4
WCcheckFlow[sink_2,sink_15] -5
WCcheckFlow[sink_29,innode_7] 2
WCcheckFlow[innode_4,sink_19] -4
WCcheckFlow[sink_19,innode_3] -5
WCcheckFlow[innode_4,innode_5] 2
WCcheckFlow[sink_27,innode_5] -1
WCcheckFlow[sink_27,sink_19] 0
WCcheckFlow[sink_10,sink_11] 3
WCcheckFlow[sink_10,innode_2] 1
WCcheckFlow[sink_10,innode_3] 6
WCcheckFlow[innode_6,sink_25] -14
WCcheckFlow[sink_11,innode_1] 2
WCcheckFlow[sink_19,innode_2] 0
WCcheckFlow[source_3,innode_4] -1
WCcheckFlow[source_2,innode_7] -1
WCcheckFlow[sink_3,innode_8] 37
